# Solution for model r3_t9_m8_3
# Finished Task: 8 / 9
# Makespan: 540.0, Total Distance: 238.0, Total Time: 1.5731
# R O S F
0 0 8 117.0 117.0
1 1 4 108.0 108.0
2 2 9 64.0 64.0
3 0 10 341.0 380.0
4 1 -1 446.0 469.0
5 2 11 456.0 484.0
6 -1 -1 429.0 464.0
7 2 5 381.0 409.0
8 0 3 242.0 279.0
9 2 7 354.0 381.0
10 0 -1 409.0 446.0
11 2 -1 514.0 540.0
